%NProcShared=1
#n B3LYP/6-31G(d) opt=rfo

 geometry optimization

0 1
C	-3.043318	-0.056064	0.901810	
C	-2.407741	-1.262062	0.548249	
C	-1.282977	-1.265610	-0.269509	
C	-0.744722	-0.063536	-0.768746	
C	0.743270	0.071650	-0.769693	
C	1.605277	-1.045879	-0.738200	
C	2.729649	-1.058492	0.084497	
C	3.041509	0.045802	0.908861	
C	2.413230	1.256210	0.551892	
C	1.287931	1.268310	-0.264079	
C	-1.608326	1.053266	-0.730066	
C	-2.735366	1.057269	0.090084	
H	-2.645705	-2.174647	1.085744	
H	-0.704232	-2.181919	-0.327364	
H	1.319630	-1.968654	-1.236786	
H	3.272821	-1.993175	0.193464	
H	2.662139	2.174881	1.072353	
H	0.717284	2.189749	-0.323752	
H	-1.323072	1.979405	-1.222755	
H	-3.287643	1.986245	0.209093	
H	-3.840886	-0.023790	1.636532	
H	3.839162	0.006719	1.642873	

