%NProcShared=1
#n B3LYP/6-31G(d) opt

 proton optimization

0 1
C	-1	-3.452440	0.712200	0.112300	
C	-1	-3.146900	0.051140	1.317720	
C	-1	-2.852670	-1.307900	1.334290	
C	-1	-2.850710	-2.064690	0.146350	
C	-1	-1.750560	-3.060350	-0.028940	
C	-1	-1.025270	-3.587410	1.061510	
C	-1	0.359930	-3.723820	0.999750	
C	-1	1.078790	-3.341450	-0.154950	
C	-1	0.306000	-3.214710	-1.327120	
C	-1	-1.075390	-3.072660	-1.265180	
C	-1	-3.530490	-1.484270	-0.947070	
C	-1	-3.824850	-0.121940	-0.964160	
H	-1	-2.915890	0.629970	2.206500	
H	-1	-2.408990	-1.717030	2.236330	
H	-1	-1.518110	-3.748470	2.016950	
H	-1	0.889060	-3.984550	1.912210	
H	-1	0.786250	-3.012770	-2.278630	
H	-1	-1.591470	-2.756600	-2.166300	
H	-1	-3.697240	-2.061540	-1.853050	
H	-1	-4.208860	0.314830	-1.882820	
H	-3.407080	1.739220	0.021770	
H	2.095940	-3.167540	-0.141240	

